Maximize

5 x_0 + 5 x_1 + 5 x_2 + 5 x_3 + 5 x_4 + 2 x_5 + 1 x_6 + 1 x_7 + 1 x_8 + 1 x_9


Subject To

a0: 1234.5 x_0 + 1098.7 x_1 + 1654.3 x_2 + 1210.9 x_3 + 1876.5 x_4 + 1432.1 x_5 + 1234.5 x_6 + 1099.9 x_7 + 1199.9 x_8 + 1000.0 x_9 <= 5000



Bounds


x_0
x_1
x_2
x_3
x_4
x_5
x_6
x_7
x_8
x_9



 


End
